p cnf 225 1
225 0
w 1 0.976893
w 2 1 0
w 2 -1 1
w 3 2 0
w 3 -2 1
w 4 3 0.735947
w 4 -3 0.626605
w 5 4 1
w 5 -4 0
w 6 5 1
w 6 -5 0
w 7 6 0
w 7 -6 1
w 8 7 1
w 8 -7 0
w 9 8 0
w 9 -8 1
w 10 9 0
w 10 -9 1
w 11 10 1
w 11 -10 0
w 12 11 0.103145
w 12 -11 0.438491
w 13 12 1
w 13 -12 0
w 14 13 0
w 14 -13 1
w 15 14 0
w 15 -14 1
w 16 1 0
w 16 -1 1
w 17 16 2 0
w 17 16 -2 0
w 17 -16 2 1
w 17 -16 -2 0
w 18 17 3 0.529797
w 18 17 -3 0.239452
w 18 -17 3 0.448127
w 18 -17 -3 0.978184
w 19 18 4 1
w 19 18 -4 1
w 19 -18 4 1
w 19 -18 -4 0
w 20 19 5 1
w 20 19 -5 0
w 20 -19 5 0
w 20 -19 -5 0
w 21 20 6 1
w 21 20 -6 0
w 21 -20 6 0
w 21 -20 -6 0
w 22 21 7 1
w 22 21 -7 1
w 22 -21 7 0
w 22 -21 -7 0
w 23 22 8 0
w 23 22 -8 0
w 23 -22 8 1
w 23 -22 -8 0
w 24 23 9 1
w 24 23 -9 0
w 24 -23 9 0
w 24 -23 -9 0
w 25 24 10 0
w 25 24 -10 0
w 25 -24 10 1
w 25 -24 -10 0
w 26 25 11 1
w 26 25 -11 1
w 26 -25 11 0
w 26 -25 -11 1
w 27 26 12 1
w 27 26 -12 0
w 27 -26 12 0
w 27 -26 -12 0
w 28 27 13 0
w 28 27 -13 1
w 28 -27 13 0
w 28 -27 -13 0
w 29 28 14 1
w 29 28 -14 1
w 29 -28 14 1
w 29 -28 -14 0
w 30 29 15 0.859573
w 30 29 -15 0.93243
w 30 -29 15 0.646164
w 30 -29 -15 0.830614
w 31 16 0.349064
w 31 -16 0.357289
w 32 31 17 1
w 32 31 -17 0
w 32 -31 17 0
w 32 -31 -17 0
w 33 32 18 0
w 33 32 -18 0
w 33 -32 18 1
w 33 -32 -18 0
w 34 33 19 0.771101
w 34 33 -19 0.836857
w 34 -33 19 0.895253
w 34 -33 -19 0.893062
w 35 34 20 1
w 35 34 -20 0
w 35 -34 20 0
w 35 -34 -20 0
w 36 35 21 0
w 36 35 -21 1
w 36 -35 21 1
w 36 -35 -21 0
w 37 36 22 1
w 37 36 -22 0
w 37 -36 22 1
w 37 -36 -22 0
w 38 37 23 0
w 38 37 -23 0
w 38 -37 23 0
w 38 -37 -23 1
w 39 38 24 0
w 39 38 -24 1
w 39 -38 24 0
w 39 -38 -24 0
w 40 39 25 1
w 40 39 -25 0
w 40 -39 25 1
w 40 -39 -25 0
w 41 40 26 0
w 41 40 -26 1
w 41 -40 26 1
w 41 -40 -26 1
w 42 41 27 1
w 42 41 -27 1
w 42 -41 27 1
w 42 -41 -27 0
w 43 42 28 0
w 43 42 -28 0
w 43 -42 28 1
w 43 -42 -28 1
w 44 43 29 0.4127
w 44 43 -29 0.610246
w 44 -43 29 0.357383
w 44 -43 -29 0.0481749
w 45 44 30 1
w 45 44 -30 0
w 45 -44 30 1
w 45 -44 -30 1
w 46 31 0.824175
w 46 -31 0.741473
w 47 46 32 0
w 47 46 -32 0
w 47 -46 32 1
w 47 -46 -32 0
w 48 47 33 0.0799566
w 48 47 -33 0.446793
w 48 -47 33 0.661705
w 48 -47 -33 0.226792
w 49 48 34 1
w 49 48 -34 0
w 49 -48 34 1
w 49 -48 -34 1
w 50 49 35 0.371084
w 50 49 -35 0.93076
w 50 -49 35 0.166068
w 50 -49 -35 0.981329
w 51 50 36 1
w 51 50 -36 0
w 51 -50 36 1
w 51 -50 -36 1
w 52 51 37 0
w 52 51 -37 1
w 52 -51 37 1
w 52 -51 -37 1
w 53 52 38 1
w 53 52 -38 0
w 53 -52 38 1
w 53 -52 -38 1
w 54 53 39 1
w 54 53 -39 1
w 54 -53 39 0
w 54 -53 -39 0
w 55 54 40 1
w 55 54 -40 0
w 55 -54 40 0
w 55 -54 -40 1
w 56 55 41 0.343411
w 56 55 -41 0.872967
w 56 -55 41 0.135296
w 56 -55 -41 0.32474
w 57 56 42 1
w 57 56 -42 1
w 57 -56 42 1
w 57 -56 -42 0
w 58 57 43 0.749064
w 58 57 -43 0.500254
w 58 -57 43 0.397725
w 58 -57 -43 0.750327
w 59 58 44 1
w 59 58 -44 0
w 59 -58 44 1
w 59 -58 -44 1
w 60 59 45 0.696794
w 60 59 -45 0.696764
w 60 -59 45 0.752956
w 60 -59 -45 0.0811539
w 61 46 0
w 61 -46 1
w 62 61 47 0.658187
w 62 61 -47 0.115973
w 62 -61 47 0.868017
w 62 -61 -47 0.627415
w 63 62 48 0
w 63 62 -48 1
w 63 -62 48 1
w 63 -62 -48 1
w 64 63 49 1
w 64 63 -49 0
w 64 -63 49 0
w 64 -63 -49 1
w 65 64 50 0
w 65 64 -50 0
w 65 -64 50 1
w 65 -64 -50 0
w 66 65 51 0
w 66 65 -51 1
w 66 -65 51 0
w 66 -65 -51 0
w 67 66 52 0
w 67 66 -52 0
w 67 -66 52 1
w 67 -66 -52 0
w 68 67 53 0.218294
w 68 67 -53 0.853656
w 68 -67 53 0.766454
w 68 -67 -53 0.845709
w 69 68 54 1
w 69 68 -54 1
w 69 -68 54 0
w 69 -68 -54 1
w 70 69 55 1
w 70 69 -55 0
w 70 -69 55 1
w 70 -69 -55 1
w 71 70 56 0.416205
w 71 70 -56 0.848061
w 71 -70 56 0.832089
w 71 -70 -56 0.636746
w 72 71 57 1
w 72 71 -57 1
w 72 -71 57 0
w 72 -71 -57 0
w 73 72 58 1
w 73 72 -58 0
w 73 -72 58 0
w 73 -72 -58 0
w 74 73 59 0
w 74 73 -59 0
w 74 -73 59 1
w 74 -73 -59 0
w 75 74 60 0
w 75 74 -60 0
w 75 -74 60 0
w 75 -74 -60 1
w 76 61 1
w 76 -61 0
w 77 76 62 1
w 77 76 -62 0
w 77 -76 62 0
w 77 -76 -62 0
w 78 77 63 0.851707
w 78 77 -63 0.95434
w 78 -77 63 0.879133
w 78 -77 -63 0.772715
w 79 78 64 0.391231
w 79 78 -64 0.534803
w 79 -78 64 0.508665
w 79 -78 -64 0.0211067
w 80 79 65 0.204191
w 80 79 -65 0.211089
w 80 -79 65 0.984735
w 80 -79 -65 0.798155
w 81 80 66 1
w 81 80 -66 1
w 81 -80 66 0
w 81 -80 -66 0
w 82 81 67 0
w 82 81 -67 0
w 82 -81 67 0
w 82 -81 -67 1
w 83 82 68 1
w 83 82 -68 0
w 83 -82 68 1
w 83 -82 -68 1
w 84 83 69 1
w 84 83 -69 0
w 84 -83 69 1
w 84 -83 -69 0
w 85 84 70 0
w 85 84 -70 1
w 85 -84 70 1
w 85 -84 -70 1
w 86 85 71 0
w 86 85 -71 0
w 86 -85 71 0
w 86 -85 -71 1
w 87 86 72 0.996108
w 87 86 -72 0.368804
w 87 -86 72 0.947508
w 87 -86 -72 0.869458
w 88 87 73 0
w 88 87 -73 1
w 88 -87 73 1
w 88 -87 -73 1
w 89 88 74 0.258019
w 89 88 -74 0.65985
w 89 -88 74 0.144275
w 89 -88 -74 0.34415
w 90 89 75 0
w 90 89 -75 1
w 90 -89 75 0
w 90 -89 -75 1
w 91 76 0.341134
w 91 -76 0.452178
w 92 91 77 1
w 92 91 -77 0
w 92 -91 77 1
w 92 -91 -77 1
w 93 92 78 0
w 93 92 -78 1
w 93 -92 78 0
w 93 -92 -78 0
w 94 93 79 0.524157
w 94 93 -79 0.720862
w 94 -93 79 0.939929
w 94 -93 -79 0.129372
w 95 94 80 0.217678
w 95 94 -80 0.0534229
w 95 -94 80 0.0907581
w 95 -94 -80 0.877528
w 96 95 81 0
w 96 95 -81 0
w 96 -95 81 0
w 96 -95 -81 1
w 97 96 82 1
w 97 96 -82 0
w 97 -96 82 0
w 97 -96 -82 0
w 98 97 83 1
w 98 97 -83 1
w 98 -97 83 1
w 98 -97 -83 0
w 99 98 84 0.681525
w 99 98 -84 0.641799
w 99 -98 84 0.993025
w 99 -98 -84 0.336223
w 100 99 85 0.959018
w 100 99 -85 0.86038
w 100 -99 85 0.522017
w 100 -99 -85 0.898947
w 101 100 86 0.354756
w 101 100 -86 0.116626
w 101 -100 86 0.0431753
w 101 -100 -86 0.445514
w 102 101 87 0.240873
w 102 101 -87 0.880423
w 102 -101 87 0.933251
w 102 -101 -87 0.120665
w 103 102 88 0
w 103 102 -88 0
w 103 -102 88 1
w 103 -102 -88 0
w 104 103 89 1
w 104 103 -89 1
w 104 -103 89 0
w 104 -103 -89 1
w 105 104 90 1
w 105 104 -90 1
w 105 -104 90 0
w 105 -104 -90 1
w 106 91 1
w 106 -91 0
w 107 106 92 0.0960829
w 107 106 -92 0.251453
w 107 -106 92 0.790456
w 107 -106 -92 0.450839
w 108 107 93 1
w 108 107 -93 0
w 108 -107 93 1
w 108 -107 -93 0
w 109 108 94 0.295484
w 109 108 -94 0.195169
w 109 -108 94 0.31044
w 109 -108 -94 0.482825
w 110 109 95 0
w 110 109 -95 0
w 110 -109 95 1
w 110 -109 -95 1
w 111 110 96 1
w 111 110 -96 0
w 111 -110 96 1
w 111 -110 -96 0
w 112 111 97 0.449278
w 112 111 -97 0.270685
w 112 -111 97 0.835632
w 112 -111 -97 0.0233443
w 113 112 98 1
w 113 112 -98 0
w 113 -112 98 0
w 113 -112 -98 0
w 114 113 99 1
w 114 113 -99 0
w 114 -113 99 1
w 114 -113 -99 1
w 115 114 100 0
w 115 114 -100 0
w 115 -114 100 1
w 115 -114 -100 0
w 116 115 101 0.0228278
w 116 115 -101 0.648654
w 116 -115 101 0.950787
w 116 -115 -101 0.391462
w 117 116 102 0
w 117 116 -102 1
w 117 -116 102 0
w 117 -116 -102 0
w 118 117 103 1
w 118 117 -103 0
w 118 -117 103 0
w 118 -117 -103 0
w 119 118 104 0
w 119 118 -104 1
w 119 -118 104 0
w 119 -118 -104 0
w 120 119 105 1
w 120 119 -105 1
w 120 -119 105 1
w 120 -119 -105 0
w 121 106 1
w 121 -106 0
w 122 121 107 1
w 122 121 -107 0
w 122 -121 107 1
w 122 -121 -107 1
w 123 122 108 0.452946
w 123 122 -108 0.710728
w 123 -122 108 0.0471811
w 123 -122 -108 0.880467
w 124 123 109 0
w 124 123 -109 0
w 124 -123 109 1
w 124 -123 -109 0
w 125 124 110 0.384994
w 125 124 -110 0.57991
w 125 -124 110 0.959183
w 125 -124 -110 0.434943
w 126 125 111 0
w 126 125 -111 1
w 126 -125 111 1
w 126 -125 -111 1
w 127 126 112 0
w 127 126 -112 0
w 127 -126 112 1
w 127 -126 -112 1
w 128 127 113 0
w 128 127 -113 1
w 128 -127 113 1
w 128 -127 -113 1
w 129 128 114 0
w 129 128 -114 1
w 129 -128 114 0
w 129 -128 -114 0
w 130 129 115 1
w 130 129 -115 0
w 130 -129 115 0
w 130 -129 -115 1
w 131 130 116 1
w 131 130 -116 1
w 131 -130 116 0
w 131 -130 -116 0
w 132 131 117 0.0960699
w 132 131 -117 0.739477
w 132 -131 117 0.0471584
w 132 -131 -117 0.444448
w 133 132 118 0
w 133 132 -118 0
w 133 -132 118 1
w 133 -132 -118 1
w 134 133 119 0.432377
w 134 133 -119 0.550919
w 134 -133 119 0.0996492
w 134 -133 -119 0.257656
w 135 134 120 0
w 135 134 -120 0
w 135 -134 120 1
w 135 -134 -120 0
w 136 121 1
w 136 -121 0
w 137 136 122 1
w 137 136 -122 0
w 137 -136 122 0
w 137 -136 -122 0
w 138 137 123 0.206572
w 138 137 -123 0.391315
w 138 -137 123 0.809686
w 138 -137 -123 0.302642
w 139 138 124 0
w 139 138 -124 1
w 139 -138 124 0
w 139 -138 -124 0
w 140 139 125 1
w 140 139 -125 1
w 140 -139 125 1
w 140 -139 -125 0
w 141 140 126 0.364865
w 141 140 -126 0.318404
w 141 -140 126 0.450064
w 141 -140 -126 0.613049
w 142 141 127 0.576404
w 142 141 -127 0.0569508
w 142 -141 127 0.548859
w 142 -141 -127 0.739219
w 143 142 128 0
w 143 142 -128 1
w 143 -142 128 1
w 143 -142 -128 0
w 144 143 129 1
w 144 143 -129 1
w 144 -143 129 0
w 144 -143 -129 0
w 145 144 130 1
w 145 144 -130 0
w 145 -144 130 1
w 145 -144 -130 0
w 146 145 131 0
w 146 145 -131 1
w 146 -145 131 1
w 146 -145 -131 0
w 147 146 132 1
w 147 146 -132 1
w 147 -146 132 0
w 147 -146 -132 1
w 148 147 133 0
w 148 147 -133 1
w 148 -147 133 1
w 148 -147 -133 1
w 149 148 134 1
w 149 148 -134 1
w 149 -148 134 0
w 149 -148 -134 1
w 150 149 135 1
w 150 149 -135 1
w 150 -149 135 1
w 150 -149 -135 0
w 151 136 0.434901
w 151 -136 0.405629
w 152 151 137 1
w 152 151 -137 0
w 152 -151 137 0
w 152 -151 -137 0
w 153 152 138 0
w 153 152 -138 1
w 153 -152 138 1
w 153 -152 -138 0
w 154 153 139 1
w 154 153 -139 0
w 154 -153 139 1
w 154 -153 -139 1
w 155 154 140 0
w 155 154 -140 1
w 155 -154 140 0
w 155 -154 -140 1
w 156 155 141 1
w 156 155 -141 0
w 156 -155 141 0
w 156 -155 -141 0
w 157 156 142 1
w 157 156 -142 1
w 157 -156 142 0
w 157 -156 -142 0
w 158 157 143 0
w 158 157 -143 1
w 158 -157 143 0
w 158 -157 -143 0
w 159 158 144 0
w 159 158 -144 0
w 159 -158 144 1
w 159 -158 -144 0
w 160 159 145 1
w 160 159 -145 1
w 160 -159 145 0
w 160 -159 -145 1
w 161 160 146 1
w 161 160 -146 0
w 161 -160 146 0
w 161 -160 -146 0
w 162 161 147 1
w 162 161 -147 1
w 162 -161 147 0
w 162 -161 -147 0
w 163 162 148 1
w 163 162 -148 1
w 163 -162 148 0
w 163 -162 -148 0
w 164 163 149 1
w 164 163 -149 1
w 164 -163 149 1
w 164 -163 -149 0
w 165 164 150 0
w 165 164 -150 0
w 165 -164 150 1
w 165 -164 -150 1
w 166 151 1
w 166 -151 0
w 167 166 152 0
w 167 166 -152 1
w 167 -166 152 0
w 167 -166 -152 1
w 168 167 153 0
w 168 167 -153 0
w 168 -167 153 1
w 168 -167 -153 1
w 169 168 154 1
w 169 168 -154 1
w 169 -168 154 1
w 169 -168 -154 0
w 170 169 155 0.255946
w 170 169 -155 0.0498348
w 170 -169 155 0.359923
w 170 -169 -155 0.979764
w 171 170 156 0.0395364
w 171 170 -156 0.700174
w 171 -170 156 0.0311402
w 171 -170 -156 0.477937
w 172 171 157 1
w 172 171 -157 0
w 172 -171 157 1
w 172 -171 -157 0
w 173 172 158 0.871074
w 173 172 -158 0.239387
w 173 -172 158 0.285507
w 173 -172 -158 0.330451
w 174 173 159 0.936053
w 174 173 -159 0.150086
w 174 -173 159 0.61803
w 174 -173 -159 0.170513
w 175 174 160 1
w 175 174 -160 0
w 175 -174 160 0
w 175 -174 -160 1
w 176 175 161 0
w 176 175 -161 1
w 176 -175 161 1
w 176 -175 -161 1
w 177 176 162 0
w 177 176 -162 0
w 177 -176 162 0
w 177 -176 -162 1
w 178 177 163 1
w 178 177 -163 1
w 178 -177 163 0
w 178 -177 -163 1
w 179 178 164 0
w 179 178 -164 0
w 179 -178 164 0
w 179 -178 -164 1
w 180 179 165 0
w 180 179 -165 1
w 180 -179 165 1
w 180 -179 -165 1
w 181 166 1
w 181 -166 0
w 182 181 167 0
w 182 181 -167 0
w 182 -181 167 0
w 182 -181 -167 1
w 183 182 168 1
w 183 182 -168 1
w 183 -182 168 0
w 183 -182 -168 0
w 184 183 169 0
w 184 183 -169 1
w 184 -183 169 0
w 184 -183 -169 1
w 185 184 170 1
w 185 184 -170 0
w 185 -184 170 0
w 185 -184 -170 1
w 186 185 171 0
w 186 185 -171 0
w 186 -185 171 0
w 186 -185 -171 1
w 187 186 172 1
w 187 186 -172 0
w 187 -186 172 1
w 187 -186 -172 0
w 188 187 173 0
w 188 187 -173 0
w 188 -187 173 0
w 188 -187 -173 1
w 189 188 174 1
w 189 188 -174 0
w 189 -188 174 1
w 189 -188 -174 1
w 190 189 175 1
w 190 189 -175 0
w 190 -189 175 0
w 190 -189 -175 0
w 191 190 176 1
w 191 190 -176 0
w 191 -190 176 0
w 191 -190 -176 0
w 192 191 177 0.128189
w 192 191 -177 0.574976
w 192 -191 177 0.0505714
w 192 -191 -177 0.391894
w 193 192 178 1
w 193 192 -178 0
w 193 -192 178 0
w 193 -192 -178 1
w 194 193 179 0
w 194 193 -179 0
w 194 -193 179 0
w 194 -193 -179 1
w 195 194 180 1
w 195 194 -180 0
w 195 -194 180 0
w 195 -194 -180 1
w 196 181 1
w 196 -181 0
w 197 196 182 0
w 197 196 -182 1
w 197 -196 182 0
w 197 -196 -182 0
w 198 197 183 0.386874
w 198 197 -183 0.577684
w 198 -197 183 0.862688
w 198 -197 -183 0.515064
w 199 198 184 1
w 199 198 -184 1
w 199 -198 184 0
w 199 -198 -184 0
w 200 199 185 0
w 200 199 -185 1
w 200 -199 185 0
w 200 -199 -185 0
w 201 200 186 1
w 201 200 -186 0
w 201 -200 186 1
w 201 -200 -186 0
w 202 201 187 1
w 202 201 -187 1
w 202 -201 187 0
w 202 -201 -187 1
w 203 202 188 0.731955
w 203 202 -188 0.292154
w 203 -202 188 0.712879
w 203 -202 -188 0.676874
w 204 203 189 0
w 204 203 -189 0
w 204 -203 189 0
w 204 -203 -189 1
w 205 204 190 1
w 205 204 -190 0
w 205 -204 190 1
w 205 -204 -190 1
w 206 205 191 0.79631
w 206 205 -191 0.418606
w 206 -205 191 0.339327
w 206 -205 -191 0.82558
w 207 206 192 1
w 207 206 -192 1
w 207 -206 192 1
w 207 -206 -192 0
w 208 207 193 1
w 208 207 -193 1
w 208 -207 193 0
w 208 -207 -193 1
w 209 208 194 0.522025
w 209 208 -194 0.693552
w 209 -208 194 0.123774
w 209 -208 -194 0.234905
w 210 209 195 1
w 210 209 -195 1
w 210 -209 195 0
w 210 -209 -195 1
w 211 196 0
w 211 -196 1
w 212 211 197 1
w 212 211 -197 1
w 212 -211 197 0
w 212 -211 -197 1
w 213 212 198 0
w 213 212 -198 1
w 213 -212 198 1
w 213 -212 -198 1
w 214 213 199 0.380106
w 214 213 -199 0.207407
w 214 -213 199 0.244671
w 214 -213 -199 0.651759
w 215 214 200 0.123618
w 215 214 -200 0.229781
w 215 -214 200 0.946428
w 215 -214 -200 0.955238
w 216 215 201 0.63998
w 216 215 -201 0.0790125
w 216 -215 201 0.986711
w 216 -215 -201 0.0104068
w 217 216 202 1
w 217 216 -202 0
w 217 -216 202 0
w 217 -216 -202 1
w 218 217 203 1
w 218 217 -203 0
w 218 -217 203 0
w 218 -217 -203 0
w 219 218 204 1
w 219 218 -204 0
w 219 -218 204 1
w 219 -218 -204 0
w 220 219 205 0
w 220 219 -205 1
w 220 -219 205 0
w 220 -219 -205 0
w 221 220 206 0.662644
w 221 220 -206 0.633688
w 221 -220 206 0.708432
w 221 -220 -206 0.617883
w 222 221 207 1
w 222 221 -207 0
w 222 -221 207 0
w 222 -221 -207 1
w 223 222 208 1
w 223 222 -208 0
w 223 -222 208 1
w 223 -222 -208 1
w 224 223 209 1
w 224 223 -209 1
w 224 -223 209 0
w 224 -223 -209 1
w 225 224 210 1
w 225 224 -210 1
w 225 -224 210 0
w 225 -224 -210 1